c --- [ banner ] -------------------------------------------------------------
c 
c CaDiCaL SAT Solver
c Copyright (c) 2016-2025
c A. Biere, M. Fleury, N. Froleyks, K. Fazekas, F. Pollitt, T. Faller
c JKU Linz, University of Freiburg, TU Wien
c 
c Version 3.0.0 7b99c07f0bcab5824a5a3ce62c7066554017f641
c Apple clang version 21.0.0 (clang-2100.0.123.102) -Wall -Wextra -O3 -DNDEBUG -DNCLOSEFROM
c Thu Apr 23 22:35:47 PDT 2026 Darwin dada-mun-26.local 25.4.0 arm64
c 
c --- [ limit ] --------------------------------------------------------------
c 
c setting time limit to 600 seconds real time (due to '-t 600')
c 
c --- [ proof tracing ] ------------------------------------------------------
c 
c opening file to write 'scratch/atail-force/exact5-card13-same-radius-terminal/direct.drat'
c writing binary proof trace to 'scratch/atail-force/exact5-card13-same-radius-terminal/direct.drat'
c 
c --- [ parsing input ] ------------------------------------------------------
c 
c reading DIMACS file from 'scratch/atail-force/exact5-card13-same-radius-terminal/direct.cnf'
c opening file to read 'scratch/atail-force/exact5-card13-same-radius-terminal/direct.cnf'
c found 'p cnf 53279 383487' header
c parsed 383487 clauses in 0.07 seconds process time
c 
c --- [ options ] ------------------------------------------------------------
c 
c   --compact=false                (different from default 'true')
c   --congruence=false             (different from default 'true')
c   --decompose=false              (different from default 'true')
c   --deduplicate=false            (different from default 'true')
c   --eagersubsume=false           (different from default 'true')
c   --elim=false                   (different from default 'true')
c   --factor=false                 (different from default 'true')
c   --factorunbump=false           (different from default 'true')
c   --fastelim=false               (different from default 'true')
c   --inprobing=false              (different from default 'true')
c   --inprocessing=false           (different from default 'true')
c   --preprocesslight=false        (different from default 'true')
c   --probe=false                  (different from default 'true')
c   --subsume=false                (different from default 'true')
c   --sweep=false                  (different from default 'true')
c   --ternary=false                (different from default 'true')
c   --transred=false               (different from default 'true')
c   --vivify=false                 (different from default 'true')
c 
c --- [ solving ] ------------------------------------------------------------
c 
c time measured in process time since initialization
c 
c  seconds  reduction conflicts       size tier2        variables
c         MB    restarts   redundant    glue  trail          remaining
c          level     rate       size/glu tier1  irredundant
c 
c *  0.07  0  0 0   0  0    0    0 0.0 0 0 2 6  0% 379847 50079 94%
c )  0.07  0  0 0   0  0    0    0 0.0 0 0 2 6  0% 379847 50079 94%
c {  0.07  0  0 0   0  0    0    0 0.0 0 0 2 6  0% 379847 50079 94%
c i  0.07  0 251 0   0  9   37   29 1.5 3 2 2 6  9% 379847 50078 94%
c i  0.08  0 290 0   2 11  108   88 1.7 2 1 2 6 13% 379847 50077 94%
c i  0.08  0 324 0  10 28  150  127 1.5 4 3 2 6 14% 379847 50076 94%
c i  0.09  0 243 0  43 34  266  228 1.5 5 3 2 6 14% 379847 50075 94%
c i  0.09  0 237 0  45 33  274  234 1.5 5 3 2 6 14% 379847 50074 94%
c i  0.09  0 229 0  48 33  284  243 1.5 5 4 2 6 14% 379847 50073 94%
c -  0.11  0 218 1  52 32  300  230 1.5 6 4 2 6 14% 379158 50073 94%
c i  0.13  0 136 1 119 23  554  461 1.5 7 5 2 6 13% 379158 50072 94%
c i  0.13  0 133 1 124 23  572  478 1.5 7 5 2 6 13% 379158 50071 94%
c i  0.13  0 115 1 160 21  707  603 1.5 8 5 2 6 13% 379158 50070 94%
c -  0.17  0 95 2 219 18  983  678 1.5 8 6 2 6 12% 379139 50070 94%
c }  0.17  0 94 2 224 18 1001  696 1.5 8 6 2 6 12% 379139 50070 94%
c [  0.17  0  0 2 224  0 1001  696 0.0 0 0 2 6  0% 379139 50070 94%
c O  0.17  0 19 2 224 20 1002  697 1.5 12 8 2 6  9% 379139 50070 94%
c i  0.17  0 28 2 224  3 1025  717 1.6 10 6 2 6 10% 379139 50069 94%
c i  0.18  0 45 2 224  4 1278  964 1.4 13 10 2 6 13% 379139 50068 94%
c -  0.21  0 36 3 225  2 2220 1083 1.4 22 16 2 6 12% 379127 50068 94%
c 
c  seconds  reduction conflicts       size   tier2        variables
c         MB    restarts   redundant     glue   trail          remaining
c          level     rate       size/glue  tier1  irredundant
c 
c ]  0.25  0 44 3 225  2 2589 1439 1.4 21 15 2 6 14% 379127 50068 94%
c {  0.25  0 94 3 225 18 2589 1439 1.5 8 6 2 6 12% 379127 50068 94%
c O  0.27  0 81 3 255 14 3004 1817 1.6 8 5 2 6 15% 379127 50068 94%
c i  0.28  0 75 3 270 13 3258 2046 1.6 9 5 2 6 15% 379127 50067 94%
c i  0.28  0 72 3 271 12 3411 2150 1.6 9 5 2 6 14% 379127 50066 94%
c -  0.31  0 64 4 271  9 4078 1941 1.7 8 5 2 6 15% 379119 50066 94%
c i  0.32  0 60 4 271  9 4288 2118 1.7 8 5 2 6 14% 379119 50064 94%
c i  0.32  0 59 4 271  9 4313 2140 1.7 8 5 2 6 14% 379119 50062 94%
c i  0.32  0 59 4 271  8 4335 2159 1.7 8 5 2 6 14% 379119 50059 94%
c i  0.33  0 58 4 277  8 4500 2311 1.8 8 5 2 6 14% 379119 50058 94%
c i  0.34  0 56 4 297  8 4769 2538 1.8 8 5 2 6 15% 379119 50055 94%
c i  0.35  0 55 4 316  8 4924 2673 1.8 8 5 2 6 15% 379119 50054 94%
c i  0.38  0 53 4 382  8 5616 3282 1.8 9 5 2 3 15% 379119 50052 94%
c i  0.39  0 53 4 388  8 5643 3303 1.8 9 5 2 3 15% 379119 50049 94%
c i  0.39  0 53 4 391  8 5692 3346 1.8 9 5 2 3 15% 379119 50048 94%
c i  0.39  0 53 4 391  8 5719 3370 1.8 9 5 2 3 15% 379119 50047 94%
c i  0.40  0 54 4 396  8 5855 3485 1.8 9 5 2 3 16% 379119 50046 94%
c i  0.40  0 54 4 397  8 5857 3486 1.8 9 5 2 3 16% 379119 50043 94%
c i  0.40  0 54 4 397  8 5860 3487 1.8 9 5 2 3 16% 379119 50038 94%
c i  0.40  0 54 4 397  8 5862 3488 1.8 9 5 2 3 16% 379119 50023 94%
c 
c  seconds  reduction conflicts       size tier2        variables
c         MB    restarts   redundant    glue  trail          remaining
c          level     rate       size/glu tier1  irredundant
c 
c #  0.41  0 54 4 411  8 6005 3605 1.8 9 5 2 3 16% 379119 50017 94%
c i  0.41  0 54 4 418  8 6032 3626 1.8 9 5 2 3 16% 379119 50016 94%
c i  0.41  0 54 4 427  8 6125 3703 1.8 9 5 2 3 16% 379119 50015 94%
c i  0.41  0 54 4 427  8 6127 3704 1.8 9 5 2 3 16% 379119 50014 94%
c i  0.41  0 54 4 427  8 6129 3705 1.8 9 5 2 3 16% 379119 50012 94%
c i  0.42  0 53 4 428  8 6172 3741 1.8 9 5 2 3 16% 379119 50006 94%
c i  0.42  0 53 4 429  8 6175 3743 1.8 9 5 2 3 16% 379119 49987 94%
c i  0.42  0 53 4 432  8 6199 3762 1.8 9 5 2 3 16% 379119 49982 94%
c i  0.42  0 53 4 432  8 6202 3764 1.8 9 5 2 3 16% 379119 49966 94%
c i  0.42  0 53 4 433  8 6214 3772 1.8 9 5 2 3 16% 379119 49962 94%
c i  0.42  0 53 4 443  8 6260 3807 1.8 9 5 2 3 16% 379119 49961 94%
c i  0.42  0 53 4 445  8 6287 3833 1.8 9 5 2 3 16% 379119 49960 94%
c i  0.43  0 53 4 445  8 6311 3853 1.8 9 5 2 3 16% 379119 49959 94%
c i  0.43  0 53 4 445  8 6324 3865 1.8 9 5 2 3 16% 379119 49957 94%
c i  0.44  0 53 4 456  8 6473 3985 1.8 9 5 2 3 16% 379119 49924 94%
c -  0.47  0 53 5 461  8 6597 2156 1.8 9 5 2 3 16% 378090 49924 94%
c }  0.48  0 53 5 475  8 6730 2271 1.9 9 5 2 3 17% 378090 49924 94%
c [  0.48  0 44 5 475  2 6730 2271 1.4 21 15 2 6 14% 378090 49924 94%
c i  0.59  0 41 5 476  2 8065 3558 1.6 21 13 6 13 20% 378090 49910 94%
c i  0.59  0 41 5 476  2 8116 3606 1.6 21 13 6 13 21% 378090 49895 94%
c 
c  seconds  reduction conflicts       size   tier2         variables
c         MB    restarts   redundant     glue    trail          remaining
c          level     rate       size/glue  tier1   irredundant
c 
c i  0.66  0 37 5 476  2 8819 4299 1.7 21 13 6 13 21% 378090 49886 94%
c ]  0.67  0 37 5 476  2 8840 4320 1.7 21 13 6 13 21% 378090 49886 94%
c {  0.67  0 53 5 476  8 8840 4320 1.9 9 5 2 3 17% 378090 49886 94%
c i  0.67  0 53 5 477  8 8844 4323 1.9 9 5 2 3 17% 378090 49885 94%
c i  0.67  0 53 5 478  8 8848 4325 1.9 9 5 2 3 17% 378090 49884 94%
c i  0.72  0 54 5 518  8 9630 5004 1.9 9 5 2 3 17% 378090 49883 94%
c i  0.72  0 54 5 518  8 9638 5011 1.9 9 5 2 3 17% 378090 49882 94%
c -  0.75  0 54 6 519  7 9799 3139 1.9 9 5 2 3 18% 377729 49882 94%
c B  0.77  0 55 6 534  7 10008 3302 1.9 9 5 2 3 18% 377729 49882 94%
c i  0.84  0 55 6 614  7 11166 4337 1.9 9 5 2 3 19% 377729 49865 94%
c i  0.85  0 55 6 621  7 11333 4476 1.9 9 5 2 3 19% 377729 49861 94%
c i  0.88  0 55 6 653  7 11867 4955 2.0 9 5 2 3 20% 377729 49860 94%
c i  0.88  0 55 6 653  7 11869 4956 2.0 9 5 2 3 20% 377729 49859 94%
c i  0.99  0 55 6 745  7 13460 6365 2.0 10 5 2 3 21% 377729 49850 94%
c i  0.99  0 55 6 753  7 13503 6397 2.0 10 5 2 3 21% 377729 49845 94%
c -  1.04  0 55 7 785  7 13707 4592 2.0 10 5 2 3 21% 377449 49845 94%
c }  1.12  0 54 7 865  7 14928 5711 2.0 10 5 2 3 21% 377449 49845 94%
c [  1.12  0 37 7 865  2 14928 5711 1.7 21 13 6 13 21% 377449 49845 94%
c I  1.13  0 37 7 865  2 15010 5791 1.7 21 12 6 13 21% 377449 49845 94%
c -  1.36  0 40 8 868  2 18322 6115 2.1 22 11 6 13 24% 377449 49845 94%
c 
c  seconds  reductions conflicts       size   tier2         variables
c         MB    restarts    redundant     glue    trail          remaining
c          level     rate        size/glue  tier1   irredundant
c 
c B  1.49  0 39 8 869  2 21011 8632 2.2 21 10 6 13 23% 377449 49845 94%
c ]  1.55  0 39 8 869  2 21593 9200 2.1 21 10 2 5 23% 377449 49845 94%
c {  1.55  0 54 8 869  7 21593 9200 2.0 10 5 2 3 21% 377449 49845 94%
c -  1.77  0 53 9 1131  7 23656 7504 2.0 10 5 2 3 21% 377449 49845 94%
c W  2.23  0 50 9 1589  7 28012 11553 2.0 10 5 2 3 22% 377449 49845 94%
c }  2.40  0 49 9 1816  7 29545 12954 2.0 10 5 2 3 22% 377449 49845 94%
c [  2.40  0 39 9 1816  2 29545 12954 2.1 21 10 2 5 23% 377449 49845 94%
c i  2.40  0 39 9 1816  2 29546 12954 2.1 21 10 2 5 23% 377449 49844 94%
c -  2.44  0 39 10 1816  2 29719 9483 2.2 21 10 2 5 23% 377442 49844 94%
c i  2.82  0 35 10 1818  2 33780 13417 2.4 23 10 2 5 24% 377442 49843 94%
c i  2.92  0 35 10 1819  2 34947 14547 2.4 23 10 2 5 24% 377442 49836 94%
c W  3.08  0 35 10 1819  2 36013 15569 2.3 24 10 2 5 24% 377324 49830 94%
c -  3.15  0 34 11 1820  2 36515 10865 2.3 24 10 2 5 24% 377324 49830 94%
c ]  3.27  0 33 11 1821  2 38011 12323 2.3 24 10 2 5 24% 377324 49830 94%
c {  3.27  0 49 11 1821  7 38011 12323 2.0 10 5 2 3 22% 377324 49830 94%
c i  3.31  0 49 11 1866  7 38270 12561 2.0 10 5 2 3 22% 377324 49829 94%
c -  3.95  0 47 12 2619  7 44046 12735 2.1 11 5 2 3 23% 377322 49829 94%
c i  4.02  0 46 12 2700  7 44803 13446 2.1 11 5 2 3 23% 377322 49828 94%
c F  4.04  0 46 12 2712  7 45014 13645 2.1 11 5 2 3 23% 377322 49828 94%
c i  4.15  0 45 12 2866  7 46111 14656 2.1 11 5 2 3 23% 377322 49827 94%
c 
c  seconds  reductions   conflicts        size  tier2        variables
c         MB     restarts      redundant     glue  trail          remaining
c          level       rate         size/glue tier1  irredundant
c 
c i  4.26  0 45 12 2996  7 47257 15714 2.1 11 5 2 3 23% 377322 49826 94%
c }  4.49  0 44 12 3297  7 49021 17340 2.1 11 5 2 3 23% 377322 49826 94%
c [  4.49  0 33 12 3297  2 49021 17340 2.3 24 10 2 5 24% 377322 49826 94%
c -  4.83  0 31 13 3299  2 52319 15026 2.4 24 10 2 5 24% 377300 49826 94%
c O  5.09  0 31 13 3299  2 55015 17674 2.4 25 10 2 5 25% 377300 49826 94%
c -  5.73  0 29 14 3300  2 61334 16272 2.5 27 11 2 5 25% 377300 49826 94%
c ]  5.74  0 29 14 3300  2 61354 16292 2.5 27 11 2 5 25% 377300 49826 94%
c {  5.74  0 44 14 3300  7 61354 16292 2.1 11 5 2 3 23% 377300 49826 94%
c i  5.82  0 44 14 3398  7 62336 17207 2.1 11 5 2 3 23% 377300 49824 94%
c B  6.28  0 42 14 4036  7 66016 20657 2.1 12 6 2 3 23% 377300 49824 94%
c -  6.94  0 39 15 4764  7 71098 14480 2.2 12 6 1 2 22% 377286 49824 94%
c i  7.03  0 39 15 4832  7 71869 15211 2.2 12 6 1 2 22% 377286 49801 93%
c }  7.44  0 38 15 5231  6 75581 18715 2.3 13 6 1 2 23% 377286 49801 93%
c [  7.44  0 29 15 5231  2 75581 18715 2.5 27 11 2 5 25% 377286 49801 93%
c B  7.64  0 29 15 5231  2 78020 21062 2.6 27 10 2 5 25% 377286 49801 93%
c i  7.75  0 29 15 5233  2 80210 23109 2.5 26 10 2 5 26% 377286 49800 93%
c -  7.89  0 29 16 5234  2 81609 15419 2.6 26 10 2 5 26% 375410 49800 93%
c i  8.39  0 26 16 5238  2 87562 21202 2.7 26 9 2 5 25% 375410 49761 93%
c W  8.93  0 25 16 5239  2 91022 22864 2.8 26 9 2 5 25% 370635 49761 93%
c -  9.11  0 25 17 5240  2 92853 15693 2.8 26 9 2 5 25% 370635 49761 93%
c 
c  seconds  reductions   conflicts        size  tier2        variables
c         MB     restarts      redundant     glue  trail          remaining
c          level       rate         size/glue tier1  irredundant
c 
c i  9.16  0 25 17 5241  2 93515 16328 2.8 25 9 2 5 25% 370635 49694 93%
c ]  9.26  0 25 17 5241  2 94849 17599 2.8 25 9 2 5 26% 370635 49694 93%
c {  9.26  0 38 17 5241  6 94849 17599 2.3 13 6 1 2 23% 370635 49694 93%
c i  9.34  0 37 17 5281  6 95747 18432 2.3 13 6 1 2 23% 370635 49495 93%
c i  9.39  0 37 17 5328  6 96278 18922 2.3 13 6 1 2 23% 370635 49493 93%
c i  9.58  0 36 17 5478  6 98698 21159 2.3 13 6 1 2 23% 370635 49488 93%
c i  9.60  0 36 17 5501  6 98861 21311 2.3 13 6 1 2 23% 370635 49475 93%
c i  9.65  0 36 17 5567  6 99566 21968 2.3 13 6 1 2 23% 370635 49353 93%
c i  9.69  0 35 17 5569  6 100360 22702 2.3 13 6 1 2 22% 370635 48923 92%
c i  9.71  0 35 17 5574  6 100728 23050 2.3 13 6 1 2 22% 370635 48839 92%
c i  9.73  0 35 17 5574  6 101033 23339 2.3 13 6 1 2 22% 370635 48638 91%
c i  9.73  0 35 17 5574  6 101085 23383 2.3 13 6 1 2 22% 370635 48060 90%
c i  9.73  0 35 17 5574  6 101132 23427 2.3 13 6 1 2 22% 370635 48038 90%
c i  9.74  0 35 17 5574  6 101174 23462 2.3 13 6 1 2 22% 370635 47680 89%
c i  9.74  0 35 17 5574  6 101180 23465 2.3 13 6 1 2 22% 370635 47053 88%
c }  9.74  0 35 17 5574  6 101183 23465 2.3 13 6 1 2 22% 370635 46794 88%
c 0  9.74  0 35 17 5574  6 101183 23465 2.3 13 6 1 2 22% 370635 46794 88%
c 
c --- [ closing proof ] ------------------------------------------------------
c 
c DRAT proof file 'scratch/atail-force/exact5-card13-same-radius-terminal/direct.drat' closed
c DRAT 182780 added clauses 52.45%
c DRAT 165681 deleted clauses 47.55%
c DRAT 11175672 bytes (10.66 MB)
c 
c --- [ result ] -------------------------------------------------------------
c 
s UNSATISFIABLE
c 
c --- [ run-time profiling ] -------------------------------------------------
c 
c process time taken by individual solving procedures
c (percentage relative to process time for solving)
c 
c         9.67  100.00% search
c         4.93   51.03% unstable
c         4.32   44.72% stable
c         0.41    4.22% walk
c         0.07    0.73% parse
c         0.00    0.03% lucky
c         0.00    0.00% simplify
c   =================================
c         9.67   99.27% solve
c 
c last line shows process time for solving
c (percentage relative to total process time)
c 
c --- [ statistics ] ---------------------------------------------------------
c 
c chronological:             39110        38.65 %  of conflicts
c conflicts:                101183     10468.29    per second
c decisions:                389526     40299.94    per second
c fixed:                      6485        12.17 %  of all variables
c learned:                   95490        94.37 %  per conflict
c learned_lits:            2667925       100.00 %  learned literals
c minimized:                     0         0.00 %  learned literals
c shrunken:                 430510        16.14 %  learned literals
c minishrunken:             399092        14.96 %  learned literals
c otfs:                       2275         2.25 %  of conflict
c propagations:          181945843        18.82 M  per second
c reduced:                   68587        67.79 %  per conflict
c rephased:                     13      7783.31    interval
c restarts:                   5574        18.15    interval
c stabilizing:                   6        49.45 %  of conflicts
c subsumed:                    226         0.05 %  of all clauses
c strengthened:               2162         0.45 %  of all clauses
c ticks:                 849617118         4.67    propagation
c walked:                        3     33727.67    interval
c 
c seconds are measured in process time for solving
c 
c --- [ glue usage ] ---------------------------------------------------------
c 
c focused glue 1 used 141154 clauses 60.72% accumulated 60.72% tier1
c focused glue 2 used 45446 clauses 19.55% accumulated 80.27% tier2
c 
c stable glue 2 used 59860 clauses 17.33% accumulated 64.26% tier1
c stable glue 3 used 27653 clauses 8.006% accumulated 72.27%
c stable glue 4 used 19308 clauses 5.590% accumulated 77.86%
c stable glue 5 used 15816 clauses 4.579% accumulated 82.44% tier2
c 
c 
c --- [ resources ] ----------------------------------------------------------
c 
c total process time since initialization:         9.74    seconds
c total real time since initialization:            9.74    seconds
c maximum resident set size of process:       289008.00    MB
c 
c --- [ shutting down ] ------------------------------------------------------
c 
c exit 20
